p cnf 125 464
-1 -33 0
-2 -33 0
1 2 33 0
1 2 -34 0
-1 -2 -34 0
-1 2 34 0
1 -2 34 0
33 -35 0
-3 -35 0
3 -33 35 0
3 -33 -36 0
-3 33 -36 0
3 33 36 0
-3 -33 36 0
35 -37 0
-4 -37 0
4 -35 37 0
4 -35 -38 0
-4 35 -38 0
4 35 38 0
-4 -35 38 0
37 -39 0
-5 -39 0
5 -37 39 0
5 -37 -40 0
-5 37 -40 0
5 37 40 0
-5 -37 40 0
39 -41 0
-6 -41 0
6 -39 41 0
6 -39 -42 0
-6 39 -42 0
6 39 42 0
-6 -39 42 0
41 -43 0
-7 -43 0
7 -41 43 0
7 -41 -44 0
-7 41 -44 0
7 41 44 0
-7 -41 44 0
43 -45 0
-8 -45 0
8 -43 45 0
8 -43 -46 0
-8 43 -46 0
8 43 46 0
-8 -43 46 0
2 -47 0
1 -47 0
-1 -2 47 0
-1 -2 -48 0
1 2 -48 0
1 -2 48 0
-1 2 48 0
-2 -3 49 0
-3 -47 49 0
-2 -47 49 0
2 3 -49 0
3 47 -49 0
2 47 -49 0
3 -49 -50 0
2 -49 -50 0
47 -49 -50 0
-3 49 50 0
-2 49 50 0
-47 49 50 0
-2 -3 -47 50 0
2 3 47 -50 0
-3 -4 51 0
-4 -49 51 0
-3 -49 51 0
3 4 -51 0
4 49 -51 0
3 49 -51 0
4 -51 -52 0
3 -51 -52 0
49 -51 -52 0
-4 51 52 0
-3 51 52 0
-49 51 52 0
-3 -4 -49 52 0
3 4 49 -52 0
-4 -5 53 0
-5 -51 53 0
-4 -51 53 0
4 5 -53 0
5 51 -53 0
4 51 -53 0
5 -53 -54 0
4 -53 -54 0
51 -53 -54 0
-5 53 54 0
-4 53 54 0
-51 53 54 0
-4 -5 -51 54 0
4 5 51 -54 0
-5 -6 55 0
-6 -53 55 0
-5 -53 55 0
5 6 -55 0
6 53 -55 0
5 53 -55 0
6 -55 -56 0
5 -55 -56 0
53 -55 -56 0
-6 55 56 0
-5 55 56 0
-53 55 56 0
-5 -6 -53 56 0
5 6 53 -56 0
-6 -7 57 0
-7 -55 57 0
-6 -55 57 0
6 7 -57 0
7 55 -57 0
6 55 -57 0
7 -57 -58 0
6 -57 -58 0
55 -57 -58 0
-7 57 58 0
-6 57 58 0
-55 57 58 0
-6 -7 -55 58 0
6 7 55 -58 0
-7 -8 59 0
-8 -57 59 0
-7 -57 59 0
7 8 -59 0
8 57 -59 0
7 57 -59 0
8 -59 -60 0
7 -59 -60 0
57 -59 -60 0
-8 59 60 0
-7 59 60 0
-57 59 60 0
-7 -8 -57 60 0
7 8 57 -60 0
8 -61 0
59 -61 0
-8 -59 61 0
-8 -59 -62 0
8 59 -62 0
-8 59 62 0
8 -59 62 0
52 -63 0
1 -63 0
-1 -52 63 0
-1 -52 -64 0
1 52 -64 0
1 -52 64 0
-1 52 64 0
-2 -54 65 0
-54 -63 65 0
-2 -63 65 0
2 54 -65 0
54 63 -65 0
2 63 -65 0
54 -65 -66 0
2 -65 -66 0
63 -65 -66 0
-54 65 66 0
-2 65 66 0
-63 65 66 0
-2 -54 -63 66 0
2 54 63 -66 0
-3 -56 67 0
-56 -65 67 0
-3 -65 67 0
3 56 -67 0
56 65 -67 0
3 65 -67 0
56 -67 -68 0
3 -67 -68 0
65 -67 -68 0
-56 67 68 0
-3 67 68 0
-65 67 68 0
-3 -56 -65 68 0
3 56 65 -68 0
-4 -58 69 0
-58 -67 69 0
-4 -67 69 0
4 58 -69 0
58 67 -69 0
4 67 -69 0
58 -69 -70 0
4 -69 -70 0
67 -69 -70 0
-58 69 70 0
-4 69 70 0
-67 69 70 0
-4 -58 -67 70 0
4 58 67 -70 0
-5 -60 71 0
-60 -69 71 0
-5 -69 71 0
5 60 -71 0
60 69 -71 0
5 69 -71 0
60 -71 -72 0
5 -71 -72 0
69 -71 -72 0
-60 71 72 0
-5 71 72 0
-69 71 72 0
-5 -60 -69 72 0
5 60 69 -72 0
-6 -62 73 0
-62 -71 73 0
-6 -71 73 0
6 62 -73 0
62 71 -73 0
6 71 -73 0
62 -73 -74 0
6 -73 -74 0
71 -73 -74 0
-62 73 74 0
-6 73 74 0
-71 73 74 0
-6 -62 -71 74 0
6 62 71 -74 0
-7 -61 75 0
-61 -73 75 0
-7 -73 75 0
7 61 -75 0
61 73 -75 0
7 73 -75 0
61 -75 -76 0
7 -75 -76 0
73 -75 -76 0
-61 75 76 0
-7 75 76 0
-73 75 76 0
-7 -61 -73 76 0
7 61 73 -76 0
8 -77 0
75 -77 0
-8 -75 77 0
-8 -75 -78 0
8 75 -78 0
-8 75 78 0
8 -75 78 0
-1 -79 0
-48 -79 0
1 48 79 0
1 48 -80 0
-1 -48 -80 0
-1 48 80 0
1 -48 80 0
79 -81 0
-50 -81 0
50 -79 81 0
50 -79 -82 0
-50 79 -82 0
50 79 82 0
-50 -79 82 0
81 -83 0
-64 -83 0
64 -81 83 0
64 -81 -84 0
-64 81 -84 0
64 81 84 0
-64 -81 84 0
83 -85 0
-66 -85 0
66 -83 85 0
66 -83 -86 0
-66 83 -86 0
66 83 86 0
-66 -83 86 0
85 -87 0
-68 -87 0
68 -85 87 0
68 -85 -88 0
-68 85 -88 0
68 85 88 0
-68 -85 88 0
87 -89 0
-70 -89 0
70 -87 89 0
70 -87 -90 0
-70 87 -90 0
70 87 90 0
-70 -87 90 0
89 -91 0
-72 -91 0
72 -89 91 0
72 -89 -92 0
-72 89 -92 0
72 89 92 0
-72 -89 92 0
91 -93 0
-74 -93 0
74 -91 93 0
74 -91 -94 0
-74 91 -94 0
74 91 94 0
-74 -91 94 0
93 -95 0
-76 -95 0
76 -93 95 0
76 -93 -96 0
-76 93 -96 0
76 93 96 0
-76 -93 96 0
95 -97 0
-78 -97 0
78 -95 97 0
78 -95 -98 0
-78 95 -98 0
78 95 98 0
-78 -95 98 0
97 -99 0
-77 -99 0
77 -97 99 0
77 -97 -100 0
-77 97 -100 0
77 97 100 0
-77 -97 100 0
1 -101 0
10 -101 0
-1 -10 101 0
-1 -10 -102 0
1 10 -102 0
-1 10 102 0
1 -10 102 0
-11 -48 103 0
-48 -101 103 0
-11 -101 103 0
11 48 -103 0
48 101 -103 0
11 101 -103 0
48 -103 -104 0
11 -103 -104 0
101 -103 -104 0
-48 103 104 0
-11 103 104 0
-101 103 104 0
-11 -48 -101 104 0
11 48 101 -104 0
-12 -50 105 0
-50 -103 105 0
-12 -103 105 0
12 50 -105 0
50 103 -105 0
12 103 -105 0
50 -105 -106 0
12 -105 -106 0
103 -105 -106 0
-50 105 106 0
-12 105 106 0
-103 105 106 0
-12 -50 -103 106 0
12 50 103 -106 0
-13 -64 107 0
-64 -105 107 0
-13 -105 107 0
13 64 -107 0
64 105 -107 0
13 105 -107 0
64 -107 -108 0
13 -107 -108 0
105 -107 -108 0
-64 107 108 0
-13 107 108 0
-105 107 108 0
-13 -64 -105 108 0
13 64 105 -108 0
-14 -66 109 0
-66 -107 109 0
-14 -107 109 0
14 66 -109 0
66 107 -109 0
14 107 -109 0
66 -109 -110 0
14 -109 -110 0
107 -109 -110 0
-66 109 110 0
-14 109 110 0
-107 109 110 0
-14 -66 -107 110 0
14 66 107 -110 0
-15 -68 111 0
-68 -109 111 0
-15 -109 111 0
15 68 -111 0
68 109 -111 0
15 109 -111 0
68 -111 -112 0
15 -111 -112 0
109 -111 -112 0
-68 111 112 0
-15 111 112 0
-109 111 112 0
-15 -68 -109 112 0
15 68 109 -112 0
-16 -70 113 0
-70 -111 113 0
-16 -111 113 0
16 70 -113 0
70 111 -113 0
16 111 -113 0
70 -113 -114 0
16 -113 -114 0
111 -113 -114 0
-70 113 114 0
-16 113 114 0
-111 113 114 0
-16 -70 -111 114 0
16 70 111 -114 0
72 -115 0
113 -115 0
-72 -113 115 0
-72 -113 -116 0
72 113 -116 0
-72 113 116 0
72 -113 116 0
74 -117 0
115 -117 0
-74 -115 117 0
-74 -115 -118 0
74 115 -118 0
-74 115 118 0
74 -115 118 0
76 -119 0
117 -119 0
-76 -117 119 0
-76 -117 -120 0
76 117 -120 0
-76 117 120 0
76 -117 120 0
78 -121 0
119 -121 0
-78 -119 121 0
-78 -119 -122 0
78 119 -122 0
-78 119 122 0
78 -119 122 0
77 -123 0
121 -123 0
-77 -121 123 0
-77 -121 -124 0
77 121 -124 0
-77 121 124 0
77 -121 124 0
9 -125 0
-102 -125 0
104 -125 0
106 -125 0
108 -125 0
-110 -125 0
112 -125 0
114 -125 0
-116 -125 0
-118 -125 0
-120 -125 0
-122 -125 0
-123 -125 0
-124 -125 0
-9 102 -104 -106 -108 110 -112 -114 116 118 120 122 123 124 125 0
125 0
c main::$tmp::return_value_nondet_char!0@1#1 17 18 19 20 21 22 23 24
c symex::nondet1 9 10 11 12 13 14 15 16
c symex::nondet0 1 2 3 4 5 6 7 8
c main::$tmp::return_value_nondet_char$0!0@1#2 9 10 11 12 13 14 15 16
c __CPROVER_rounding_mode!0#1 FALSE FALSE FALSE FALSE FALSE FALSE FALSE FALSE FALSE FALSE FALSE FALSE FALSE FALSE FALSE FALSE FALSE FALSE FALSE FALSE FALSE FALSE FALSE FALSE FALSE FALSE FALSE FALSE FALSE FALSE FALSE FALSE
c main::$tmp::return_value_nondet_char$0!0@1#1 25 26 27 28 29 30 31 32
c __CPROVER_memory_leak#1 FALSE FALSE FALSE FALSE FALSE FALSE FALSE FALSE FALSE FALSE FALSE FALSE FALSE FALSE FALSE FALSE FALSE FALSE FALSE FALSE FALSE FALSE FALSE FALSE FALSE FALSE FALSE FALSE FALSE FALSE FALSE FALSE FALSE FALSE FALSE FALSE FALSE FALSE FALSE FALSE FALSE FALSE FALSE FALSE FALSE FALSE FALSE FALSE FALSE FALSE FALSE FALSE FALSE FALSE FALSE FALSE FALSE FALSE FALSE FALSE FALSE FALSE FALSE FALSE
c __CPROVER_max_malloc_size#1 FALSE FALSE FALSE FALSE FALSE FALSE FALSE FALSE FALSE FALSE FALSE FALSE FALSE FALSE FALSE FALSE FALSE FALSE FALSE FALSE FALSE FALSE FALSE FALSE FALSE FALSE FALSE FALSE FALSE FALSE FALSE FALSE FALSE FALSE FALSE FALSE FALSE FALSE FALSE FALSE FALSE FALSE FALSE FALSE FALSE FALSE FALSE FALSE FALSE FALSE FALSE FALSE FALSE FALSE FALSE TRUE FALSE FALSE FALSE FALSE FALSE FALSE FALSE FALSE
c __CPROVER_deallocated#1 FALSE FALSE FALSE FALSE FALSE FALSE FALSE FALSE FALSE FALSE FALSE FALSE FALSE FALSE FALSE FALSE FALSE FALSE FALSE FALSE FALSE FALSE FALSE FALSE FALSE FALSE FALSE FALSE FALSE FALSE FALSE FALSE FALSE FALSE FALSE FALSE FALSE FALSE FALSE FALSE FALSE FALSE FALSE FALSE FALSE FALSE FALSE FALSE FALSE FALSE FALSE FALSE FALSE FALSE FALSE FALSE FALSE FALSE FALSE FALSE FALSE FALSE FALSE FALSE
c main::$tmp::return_value_nondet_char!0@1#2 1 2 3 4 5 6 7 8
c __CPROVER_dead_object#1 FALSE FALSE FALSE FALSE FALSE FALSE FALSE FALSE FALSE FALSE FALSE FALSE FALSE FALSE FALSE FALSE FALSE FALSE FALSE FALSE FALSE FALSE FALSE FALSE FALSE FALSE FALSE FALSE FALSE FALSE FALSE FALSE FALSE FALSE FALSE FALSE FALSE FALSE FALSE FALSE FALSE FALSE FALSE FALSE FALSE FALSE FALSE FALSE FALSE FALSE FALSE FALSE FALSE FALSE FALSE FALSE FALSE FALSE FALSE FALSE FALSE FALSE FALSE FALSE
